peakDumbCharging = 14800; 
Machine = anon_enum(16); 
machineSpeed = [3700,3700,3700,3700,3700,3700,3700,3700,3700,3700,3700,3700,3700,3700,3700,3700]; 
machineLoad = [3700,3700,3700,3700,3700,3700,3700,3700,3700,3700,3700,3700,3700,3700,3700,3700]; 
Car = anon_enum(20); 
demandCar = [14240,3200,12120,3400,3600,2160,15720,5560,5520,15480,13440,160,15840,4520,31080,19120,59840,13440,4840,34160]; 
arrivalCar = [69,67,66,64,64,63,61,59,58,58,57,55,53,34,30,27,27,24,23,22]; 
departureCar = [74,69,70,68,68,65,76,64,61,64,63,56,59,37,48,55,48,42,26,40]; 
